(set-info :Origin "This instance was generated by: BanditFuzz-- an RL fuzzer for SMT solvers" )
(set-info :Author "Joe Scott, Fed Mora, Vijay Ganesh" )
(set-info :Contact "Joe Scott, joseph.scott@uwaterloo.ca")
; solvers/z3.sh
; 	time => 0.056487321853637695
; 	answer => err
; solvers/cvc4.sh
; 	time => 0.05491805076599121
; 	answer => sat
(set-logic QF_NIRA)
(declare-const bool_0 Bool)
(declare-const bool_1 Bool)
(declare-const bool_2 Bool)
(declare-const bool_3 Bool)
(declare-const bool_4 Bool)
(declare-const int_0 Int)
(declare-const int_1 Int)
(declare-const int_2 Int)
(declare-const int_3 Int)
(declare-const int_4 Int)
(declare-const real_0 Real)
(declare-const real_1 Real)
(declare-const real_2 Real)
(declare-const real_3 Real)
(declare-const real_4 Real)
(assert (and (> (mod int_4 223346406) (/ 498548552 int_1)) (>= (* real_3 604292304.2551255) (+ real_0 (- 486845708.8512748)))))
(assert (>= (/ (/ (- 383979349) (- 728502788)) (mod (- 409966729) int_0)) (- (+ int_2 (- 294454753)) (/ int_4 668097660))))
(assert (>= (- (/ 794413599.6274996 real_1) (+ 800721823.8829978 877053980.9622581)) (/ (+ (- 630789536.9947724) real_2) (* real_0 real_4))))
(assert (xor (>= (- int_0) (* (- 976446668) int_4)) (=> (or true bool_0) (> real_1 132950313.38041496))))
(assert (or (> (* int_3 565779311) (/ (- 733977077) int_1)) (> (- int_1 538778231) (- 716198099))))
(check-sat)
(exit)
